c 2-SAT control (sanity-only)
c Generated by mu_sat_difficulty_scale.py
p cnf 30 60
-24 -13 0
29 -30 0
3 24 0
5 6 0
-3 1 0
-16 -4 0
6 -26 0
-15 -14 0
25 -10 0
-8 5 0
19 17 0
-14 -12 0
-28 6 0
-29 -1 0
-10 7 0
-11 13 0
-22 12 0
-16 29 0
4 7 0
5 4 0
-1 18 0
-3 25 0
-25 12 0
-3 -10 0
-18 25 0
-9 -24 0
28 -17 0
-1 -22 0
-13 -29 0
-16 -5 0
-26 25 0
1 -2 0
-14 -23 0
-5 -1 0
-9 -24 0
5 13 0
-22 14 0
24 4 0
19 27 0
-4 -26 0
-25 -12 0
-21 -2 0
20 30 0
-26 3 0
27 -16 0
27 11 0
23 -29 0
-9 26 0
-17 6 0
25 -19 0
3 4 0
9 26 0
-10 -30 0
11 -16 0
-14 -3 0
8 15 0
10 -16 0
3 -19 0
-6 -8 0
-15 7 0
